0 92 244
1 139 105
2 281 116
3 36 121
4 135 304
5 169 36
6 14 603
7 19 312
8 11 476
9 198 17
10 130 28
11 106 20
12 109 21
13 123 119
14 444 152
15 159 80
16 766 106
17 163 148
18 26 100
19 200 223
20 726 261
21 64 11